<?xml version = "1.0" standalone="yes"?>
<!-- This file has been generated by DOcplex version 2.23.222  -->
<CPLEXSolution version="1.0">
 <header
   problemName="CVRP"
   objectiveValue="13007.1"
  />
 <variables>
  <variable name="x_0_3" index="2" value="1.00000"/>
  <variable name="x_0_8" index="7" value="1.00000"/>
  <variable name="x_0_9" index="8" value="1.00000"/>
  <variable name="x_0_10" index="9" value="1.00000"/>
  <variable name="x_0_12" index="11" value="1.00000"/>
  <variable name="x_0_16" index="15" value="1.00000"/>
  <variable name="x_0_17" index="16" value="1.00000"/>
  <variable name="x_0_19" index="18" value="1.00000"/>
  <variable name="x_0_21" index="20" value="1.00000"/>
  <variable name="x_0_22" index="21" value="1.00000"/>
  <variable name="x_0_23" index="22" value="1.00000"/>
  <variable name="x_0_27" index="26" value="1.00000"/>
  <variable name="x_1_0" index="29" value="1.00000"/>
  <variable name="x_2_15" index="72" value="1.00000"/>
  <variable name="x_3_4" index="90" value="1.00000"/>
  <variable name="x_4_25" index="140" value="1.00000"/>
  <variable name="x_5_0" index="145" value="1.00000"/>
  <variable name="x_6_29" index="202" value="1.00000"/>
  <variable name="x_7_18" index="220" value="1.00000"/>
  <variable name="x_8_26" index="257" value="1.00000"/>
  <variable name="x_9_0" index="261" value="1.00000"/>
  <variable name="x_10_5" index="295" value="1.00000"/>
  <variable name="x_11_0" index="319" value="1.00000"/>
  <variable name="x_12_2" index="350" value="1.00000"/>
  <variable name="x_13_0" index="377" value="1.00000"/>
  <variable name="x_14_6" index="412" value="1.00000"/>
  <variable name="x_15_0" index="435" value="1.00000"/>
  <variable name="x_16_24" index="487" value="1.00000"/>
  <variable name="x_17_7" index="500" value="1.00000"/>
  <variable name="x_18_1" index="523" value="1.00000"/>
  <variable name="x_19_13" index="564" value="1.00000"/>
  <variable name="x_20_28" index="607" value="1.00000"/>
  <variable name="x_21_0" index="609" value="1.00000"/>
  <variable name="x_22_0" index="638" value="1.00000"/>
  <variable name="x_23_14" index="681" value="1.00000"/>
  <variable name="x_24_11" index="707" value="1.00000"/>
  <variable name="x_25_0" index="725" value="1.00000"/>
  <variable name="x_26_20" index="774" value="1.00000"/>
  <variable name="x_27_0" index="783" value="1.00000"/>
  <variable name="x_28_0" index="812" value="1.00000"/>
  <variable name="x_29_0" index="841" value="1.00000"/>
  <variable name="u_1" index="870" value="50.00000"/>
  <variable name="u_2" index="871" value="43.00000"/>
  <variable name="u_3" index="872" value="17.00000"/>
  <variable name="u_4" index="873" value="38.00000"/>
  <variable name="u_5" index="874" value="50.00000"/>
  <variable name="u_6" index="875" value="24.00000"/>
  <variable name="u_7" index="876" value="22.00000"/>
  <variable name="u_8" index="877" value="8.00000"/>
  <variable name="u_9" index="878" value="50.00000"/>
  <variable name="u_10" index="879" value="30.00000"/>
  <variable name="u_11" index="880" value="50.00000"/>
  <variable name="u_12" index="881" value="16.00000"/>
  <variable name="u_13" index="882" value="46.00000"/>
  <variable name="u_14" index="883" value="18.00000"/>
  <variable name="u_15" index="884" value="44.00000"/>
  <variable name="u_16" index="885" value="20.00000"/>
  <variable name="u_17" index="886" value="16.00000"/>
  <variable name="u_18" index="887" value="32.00000"/>
  <variable name="u_19" index="888" value="13.00000"/>
  <variable name="u_20" index="889" value="48.00000"/>
  <variable name="u_21" index="890" value="42.00000"/>
  <variable name="u_22" index="891" value="37.00000"/>
  <variable name="u_23" index="892" value="4.00000"/>
  <variable name="u_24" index="893" value="45.00000"/>
  <variable name="u_25" index="894" value="41.00000"/>
  <variable name="u_26" index="895" value="46.00000"/>
  <variable name="u_27" index="896" value="38.00000"/>
  <variable name="u_28" index="897" value="50.00000"/>
  <variable name="u_29" index="898" value="38.00000"/>
 </variables>
</CPLEXSolution>
